134
Route #1: 1 63 
Route #2: 2 70 
Route #3: 3 31 46 
Route #4: 4 41 83 
Route #5: 5 28 
Route #6: 6 18 54 
Route #7: 7 58 88 
Route #8: 8 
Route #9: 9 32 
Route #10: 10 33 81 
Route #11: 11 72 76 127 
Route #12: 12 45 65 122 
Route #13: 13 68 
Route #14: 14 
Route #15: 15 49 
Route #16: 16 61 96 
Route #17: 17 75 
Route #18: 19 59 
Route #19: 20 
Route #20: 21 60 
Route #21: 22 55 100 
Route #22: 23 52 86 
Route #23: 24 51 67 
Route #24: 25 50 84 
Route #25: 26 74 114 
Route #26: 27 62 89 108 
Route #27: 29 71 126 
Route #28: 30 78 142 
Route #29: 34 97 
Route #30: 35 109 
Route #31: 36 106 
Route #32: 37 64 136 
Route #33: 38 79 162 
Route #34: 39 110 
Route #35: 40 69 119 
Route #36: 42 53 91 139 
Route #37: 43 95 
Route #38: 44 113 154 
Route #39: 47 73 115 
Route #40: 48 107 124 169 
Route #41: 56 82 130 
Route #42: 57 85 146 
Route #43: 66 87 111 163 
Route #44: 77 102 116 149 
Route #45: 80 103 143 
Route #46: 90 134 182 
Route #47: 92 178 
Route #48: 93 125 173 185 
Route #49: 94 158 176 
Route #50: 98 181 
Route #51: 99 152 200 
Route #52: 101 123 196 
Route #53: 104 131 167 
Route #54: 105 128 183 
Route #55: 112 168 225 
Route #56: 117 132 177 
Route #57: 118 151 184 194 
Route #58: 120 171 
Route #59: 121 165 193 206 
Route #60: 129 187 
Route #61: 133 195 244 
Route #62: 135 156 
Route #63: 137 210 222 
Route #64: 138 205 
Route #65: 140 199 
Route #66: 141 186 
Route #67: 144 202 226 
Route #68: 145 172 217 
Route #69: 147 204 239 
Route #70: 148 212 
Route #71: 150 214 
Route #72: 153 207 
Route #73: 155 175 228 
Route #74: 157 218 
Route #75: 159 180 227 
Route #76: 160 197 231 246 
Route #77: 161 203 
Route #78: 164 224 
Route #79: 166 191 240 
Route #80: 170 209 216 
Route #81: 174 229 
Route #82: 179 201 221 241 254 
Route #83: 188 251 
Route #84: 189 234 266 
Route #85: 190 230 285 
Route #86: 192 219 273 
Route #87: 198 261 
Route #88: 208 238 296 
Route #89: 211 257 
Route #90: 213 242 294 
Route #91: 215 262 
Route #92: 220 250 276 308 
Route #93: 223 300 
Route #94: 232 301 
Route #95: 233 281 310 
Route #96: 235 256 302 
Route #97: 236 297 
Route #98: 237 270 311 
Route #99: 243 299 343 
Route #100: 245 286 330 
Route #101: 247 306 
Route #102: 248 271 305 
Route #103: 249 284 304 
Route #104: 252 279 
Route #105: 253 291 345 
Route #106: 255 312 334 
Route #107: 258 320 
Route #108: 259 321 
Route #109: 260 322 
Route #110: 263 333 
Route #111: 264 329 350 
Route #112: 265 315 
Route #113: 267 323 
Route #114: 268 341 
Route #115: 269 336 
Route #116: 272 324 
Route #117: 274 318 331 
Route #118: 275 340 
Route #119: 277 316 
Route #120: 278 338 
Route #121: 280 325 
Route #122: 282 342 
Route #123: 283 326 
Route #124: 287 313 349 
Route #125: 288 309 
Route #126: 289 327 
Route #127: 290 339 
Route #128: 292 346 
Route #129: 293 332 347 
Route #130: 295 344 
Route #131: 298 319 348 
Route #132: 303 337 
Route #133: 307 314 328 
Route #134: 317 335 
Cost 230737.0
